treewidth/data/PappusGraph.gr
p tw 18 27
1 2
1 14
1 15
2 11
2 16
11 12
11 17
12 13
12 18
13 14
13 3
14 4
15 6
15 10
16 5
16 7
17 6
17 8
18 7
18 9
3 8
3 10
4 5
4 9
5 8
6 9
7 10
