treewidth/data/PappusGraph.td
c width = 6, time = 0.164400
s td 11 7 18
b 1 3 7 9 10 12 15 18
b 2 2 3 5 7 9 12 15
b 3 2 3 5 9 12 14 15
b 4 1 2 14 15
b 5 4 5 9 14
b 6 3 12 13 14
b 7 2 3 5 9 12 15 17
b 8 6 9 15 17
b 9 3 5 8 17
b 10 2 11 12 17
b 11 2 5 7 16
3 4
3 5
3 6
2 3
7 8
7 9
7 10
2 7
2 11
1 2
